30 6
5 3 2 6 1 1 
23 0 5
16 20 3
18 21 3
13 14 2
0 2 5
23 3 3
10 13 5
21 1 1
22 1 2
0 0 1
3 6 1
18 21 4
21 0 6
16 20 3
4 7 1
23 1 4
23 2 3
7 9 1
7 11 2
11 14 6
21 0 4
4 5 6
9 12 6
0 2 1
11 14 1
11 13 4
21 0 5
18 21 3
10 14 1
1 3 6
